p cnf 13 49
-1 -9 12 0
-1 -7 10 0
5 9 -12 0
-5 6 13 0
-1 -8 -11 0
-1 -3 -11 0
-2 9 13 0
6 8 -10 0
6 10 11 0
-7 -9 -13 0
-5 6 -12 0
3 7 12 0
-4 -7 12 0
-2 -4 8 0
1 -4 -7 0
2 -5 -9 0
-2 -8 13 0
-2 5 -10 0
1 3 -13 0
-3 -8 11 0
1 3 10 0
-5 -6 -11 0
2 4 6 0
4 -7 -10 0
2 7 -8 0
-6 12 -13 0
1 -12 13 0
-1 -3 4 0
3 -6 -9 0
-4 5 -10 0
5 10 11 0
4 10 11 0
1 5 8 0
6 -11 -13 0
1 4 -13 0
-4 6 -11 0
-3 5 -9 0
4 10 13 0
1 -9 -12 0
-1 -2 8 0
-2 -3 13 0
2 -7 -10 0
1 -7 -9 0
6 -11 12 0
-3 10 -13 0
5 -6 -10 0
-4 7 10 0
3 -9 -13 0
-1 -4 5 0
